100	101942

893 721
747 901
993 127
87 864
736 951
645 511
530 802
724 516
20 337
253 755
249 998
951 1
439 115
92 45
178 285
795 829
521 752
286 161
479 910
44 907
15 703
454 167
176 998
565 621
197 947
979 847
614 779
679 420
838 390
460 45
273 1
857 934
758 923
420 557
913 942
236 782
41 224
744 299
794 894
524 69
886 759
10 128
361 815
837 994
184 307
793 353
516 215
505 273
411 430
527 908
172 237
247 14
552 599
558 406
186 666
278 367
255 317
700 81
886 226
169 692
299 840
240 809
185 628
699 852
43 365
972 904
646 805
962 144
936 218
295 481
958 114
577 578
734 250
433 521
141 311
615 317
561 807
875 116
252 983
256 800
348 16
502 819
299 724
850 918
297 401
583 848
964 331
421 118
855 454
938 276
524 848
152 562
425 507
46 162
600 268
563 177
713 485
900 86
740 933
340 84
